200
[47,49,50,53,57,58,63,66,72,79,81,85,87,93,98,100,101,103,104,105,107,112,113,116,118,120,121,128,130,134,135,138,139,140,141,144,149,151,152,154,156]
[1,1,1,1,1,1,1,1,2,1,2,1,1,1,1,2,1,1,1,2,1,1,1,1,1,1,1,1,1,1,2,3,1,1,1,2,1,1,1,2,1]
